
Log started (V22.1.1.0) Tue Sep 17 14:13:16 2024


Problem 'problem.lp' read.
Read time = 0.08 sec. (10.52 ticks)
Version identifier: 22.1.1.0 | 2022-11-27 | 9160aff4d
Found incumbent of value 200.000000 after 0.00 sec. (2.19 ticks)
Tried aggregator 2 times.
MIP Presolve eliminated 600 rows and 0 columns.
Aggregator did 15 substitutions.
Reduced MIP has 60186 rows, 375 columns, and 555465 nonzeros.
Reduced MIP has 375 binaries, 0 generals, 0 SOSs, and 0 indicators.
Presolve time = 0.24 sec. (218.57 ticks)
Probing time = 0.02 sec. (9.82 ticks)
Tried aggregator 1 time.
Detecting symmetries...
Reduced MIP has 60186 rows, 375 columns, and 555465 nonzeros.
Reduced MIP has 375 binaries, 0 generals, 0 SOSs, and 0 indicators.
Presolve time = 0.33 sec. (291.45 ticks)
Probing time = 0.02 sec. (9.74 ticks)
Clique table members: 315.
MIP emphasis: balance optimality and feasibility.
MIP search method: dynamic search.
Parallel mode: deterministic, using up to 8 threads.
Root relaxation solution time = 0.73 sec. (410.23 ticks)

        Nodes                                         Cuts/
   Node  Left     Objective  IInf  Best Integer    Best Bound    ItCnt     Gap

*     0+    0                          200.0000        0.0000           100.00%
*     0+    0                          101.0000        0.0000           100.00%
      0     0        2.4854   283      101.0000        2.4854       17   97.54%
      0     0        2.8205   328      101.0000      Fract: 5      625   97.21%
      0     2        2.8205   328      101.0000        2.8205      625   97.21%
Elapsed time = 10.64 sec. (10683.81 ticks, tree = 0.02 MB, solutions = 2)
      1     3        3.0587   301      101.0000        2.8205     1819   97.21%
      3     3        9.5458   262      101.0000        2.8205     3198   97.21%
      4     4        9.5866   265      101.0000        2.8205     2914   97.21%
      5     4       10.3333   125      101.0000        3.0587     5177   96.97%
      6     5       15.7347   267      101.0000        9.5471     5934   90.55%
      8     6       10.8333   124      101.0000        9.5471     6619   90.55%
     11     8       17.2458   249      101.0000        9.5471     7432   90.55%
     13    12       17.9210   279      101.0000       10.3333    10486   89.77%
     16    10       16.1489   270      101.0000       10.3333     9806   89.77%
     22     6       17.0439   271      101.0000       10.3333     7626   89.77%
Elapsed time = 23.92 sec. (19094.81 ticks, tree = 0.02 MB, solutions = 2)
     28     8       19.0255   264      101.0000       10.3333     8981   89.77%
     35    30       20.3652   273      101.0000       10.8159    24707   89.29%
     45    42       17.8974   188      101.0000       10.8159    35246   89.29%
*    48    36      integral     0       20.0000       10.8159    32546   45.92%
     56    32       28.9712   289       20.0000       10.8159    27320   45.92%
     64    29       18.6687   292       20.0000       11.3333    38840   43.33%
     77    22        cutoff             20.0000       11.4467    41598   42.77%
     94    19       17.6619   293       20.0000       11.4467    45023   42.77%
    107    12        cutoff             20.0000       14.9646    52458   25.18%
    121    12        cutoff             20.0000       14.9646    53170   25.18%
    123    35       22.6524   290       20.0000       14.9646    30678   25.18%
Elapsed time = 40.28 sec. (32601.15 ticks, tree = 1.92 MB, solutions = 3)

Gomory fractional cuts applied:  2

Root node processing (before b&c):
  Real time             =   10.56 sec. (10624.87 ticks)
Parallel b&c, 8 threads:
  Real time             =   29.80 sec. (22214.47 ticks)
  Sync time (average)   =    6.45 sec.
  Wait time (average)   =    0.00 sec.
                          ------------
Total (root+branch&cut) =   40.36 sec. (32839.34 ticks)

Solution pool: 3 solutions saved.

MIP - Integer optimal solution:  Objective =  2.0000000000e+01
Solution time =   40.36 sec.  Iterations = 63120  Nodes = 125
Deterministic time = 32839.34 ticks  (813.66 ticks/sec)

